\* Problem: Unknown *\

Maximize
 obj: + xp_0_0 + xp_0_1 + xp_0_2 + xp_0_3 + xp_0_4 + xp_0_5 + xp_0_6
 + xp_0_7 + xp_1_0 + xp_1_1 + xp_1_2 + xp_1_3 + xp_2_0 + xp_2_1 + xp_2_2
 + xp_2_3 + xp_2_4 + xp_3_0 + xp_3_1 + xp_3_2 + xp_3_3 + xp_4_0 + xp_5_0
 + xp_5_1 + xp_5_2 + xp_6_0 + xp_6_1 + xp_6_2 + xp_6_3 + xp_7_0 + xp_7_1
 + xp_8_0 + xp_8_1 + xp_9_0 + xp_10_0 + xp_10_1 + xp_11_0 + xp_11_1
 + xp_11_2 + xp_11_3 + xp_12_0 + xp_13_0 + xp_13_1 + xp_14_0 + xp_14_1
 + xp_14_2 + xp_15_0 + xp_15_1 + xp_16_0 + xp_16_1 + xp_17_0 + xp_17_1
 + xp_17_2 + xp_17_3 + xp_17_4 + xp_17_5 + xp_17_6 + xp_17_7 + xp_18_0
 + xp_18_1 + xp_18_2 + xp_18_3 + xp_18_4 + xp_19_0 + xp_19_1 + xp_19_2
 + xp_19_3 + xp_19_4 + xp_19_5 + xp_19_6 + xp_20_0 + xp_20_1 + xp_20_2
 + xp_20_3 + xp_21_0 + xp_21_1 + xp_21_2 + xp_21_3 + xp_21_4 + xp_22_0
 + xp_22_1 + xp_22_2 + xp_22_3 + xp_22_4 + xp_22_5 + xp_22_6 + xp_23_0
 + xp_23_1 + xp_23_2 + xp_23_3 + xp_23_4 + xp_23_5

Subject To
 r_1: 0 xp_0_0 <= 28.8106343283582
 r_2: + xp_23_2 + xp_22_3 + xp_18_4 + xp_18_1 + xp_15_1 + xp_6_2
 + xp_5_2 + xp_2_2 <= 27.7826086956522
 r_3: + xp_23_3 + xp_21_4 + xp_18_2 + xp_6_3 <= 30
 r_4: + xp_17_3 + xp_15_0 <= 30
 r_5: + xp_18_0 <= 27.2080291970803
 r_6: + xp_19_3 + xp_18_3 <= 29.4574468085106
 r_7: + xp_20_3 <= 28.8106343283582
 r_8: + xp_22_2 + xp_11_3 + xp_3_3 + xp_3_2 + xp_2_1 <= 27.7826086956522
 r_9: + xp_23_1 + xp_11_1 + xp_6_1 + xp_3_1 <= 29.4574468085106
 r_10: + xp_17_4 + xp_3_0 <= 29.4574468085106
 r_11: + xp_18_3 + xp_11_2 + xp_0_6 <= 27.2080291970803
 r_12: + xp_11_0 <= 29.4574468085106
 r_13: + xp_5_1 <= 29.4574468085106
 r_14: + xp_21_2 + xp_19_4 + xp_14_0 + xp_0_4 + xp_0_1
 <= 27.7826086956522
 r_15: + xp_21_0 + xp_19_5 <= 28.8106343283582
 r_16: + xp_22_1 + xp_21_3 + xp_14_2 + xp_0_3 + xp_0_2
 <= 28.8106343283582
 r_17: + xp_0_0 <= 27.2080291970803
 r_18: + xp_21_4 + xp_19_3 + xp_4_0 <= 28.8106343283582
 r_19: + xp_19_0 <= 28.8106343283582
 r_20: + xp_21_1 + xp_19_6 + xp_19_2 + xp_19_1 + xp_14_1 + xp_0_7
 + xp_0_6 + xp_0_5 <= 28.8106343283582
 r_21: + xp_20_1 <= 27.7826086956522
 r_22: + xp_21_2 + xp_7_1 <= 27.7826086956522
 r_23: + xp_22_5 + xp_22_3 + xp_22_2 + xp_17_5 + xp_3_3
 <= 27.7826086956522
 r_24: + xp_23_2 + xp_18_4 + xp_17_7 + xp_15_1 + xp_6_2 + xp_3_2
 + xp_0_7 + xp_0_4 <= 28.8106343283582
 r_25: 0 xp_0_0 <= 27.7826086956522
 r_26: + xp_18_1 + xp_0_5 + xp_0_1 <= 27.2080291970803
 r_27: + xp_11_3 <= 27.7826086956522
 r_28: + xp_19_4 + xp_19_1 + xp_10_1 <= 27.7826086956522
 r_29: + xp_20_2 <= 28.8106343283582
 r_30: + xp_2_0 <= 27.7826086956522
 r_31: + xp_23_3 + xp_23_1 + xp_18_2 + xp_6_3 + xp_6_1 + xp_3_1 + xp_2_4
 <= 28.8106343283582
 r_32: + xp_2_3 <= 30
 r_33: + xp_11_1 + xp_2_2 <= 30
 r_34: + xp_19_6 + xp_19_5 + xp_2_1 <= 29.4574468085106
 r_35: 0 xp_0_0 <= 28.8106343283582
 r_36: + xp_14_2 + xp_9_0 <= 27.7826086956522
 r_37: + xp_21_3 + xp_13_1 + xp_8_1 + xp_1_3 <= 28.8106343283582
 r_38: + xp_23_5 + xp_1_1 <= 30
 r_39: + xp_17_5 + xp_17_1 + xp_3_3 + xp_0_3 <= 30
 r_40: + xp_0_2 <= 27.2080291970803
 r_41: + xp_12_0 + xp_2_4 <= 28.8106343283582
 r_42: + xp_21_3 <= 28.8106343283582
 r_43: + xp_22_6 + xp_16_0 <= 28.8106343283582
 r_44: + xp_23_4 + xp_23_3 + xp_23_2 + xp_23_1 + xp_16_1 + xp_1_3
 + xp_1_2 <= 28.8106343283582
 r_45: + xp_17_7 + xp_17_2 + xp_15_1 + xp_3_2 + xp_3_1
 <= 28.8106343283582
 r_46: + xp_18_4 + xp_18_2 + xp_0_7 + xp_0_4 <= 27.2080291970803
 r_47: + xp_22_4 + xp_16_1 + xp_13_1 <= 30
 r_48: + xp_13_0 <= 28.8106343283582
 r_49: + xp_17_6 <= 30
 r_50: 0 xp_0_0 <= 27.2080291970803
 r_51: + xp_8_1 + xp_1_3 + xp_1_1 <= 30
 r_52: + xp_8_0 + xp_1_2 <= 28.8106343283582
 r_53: + xp_1_0 <= 30
 r_54: + xp_0_3 <= 27.2080291970803
 r_55: 0 xp_0_0 <= 30
 r_56: 0 xp_0_0 <= 29.4574468085106
 r_57: + xp_22_1 <= 27.2080291970803
 r_58: + xp_22_5 + xp_17_7 + xp_17_5 + xp_5_0 <= 27.2080291970803
 r_59: + xp_23_5 + xp_22_0 + xp_17_1 <= 27.2080291970803
 r_60: + xp_23_4 + xp_22_6 + xp_17_2 + xp_6_0 <= 27.2080291970803
 r_61: + xp_23_0 + xp_22_4 + xp_17_6 <= 27.2080291970803
 r_62: + xp_17_0 <= 27.2080291970803
 r_63: + xp_23_3 + xp_23_2 + xp_22_3 + xp_17_3 + xp_11_2 + xp_6_3
 + xp_6_2 + xp_5_2 <= 27.2080291970803
 r_64: + xp_23_1 + xp_22_2 + xp_17_4 + xp_6_1 + xp_5_1
 <= 27.2080291970803
 r_65: + xp_20_1 + xp_19_1 + xp_14_1 + xp_10_1 + xp_7_1 + xp_5_1
 + xp_2_3 + xp_0_7 + xp_0_5 <= 27.7826086956522
 r_66: + xp_21_1 + xp_20_2 + xp_19_6 + xp_7_0 <= 30
 r_67: + xp_20_3 + xp_19_2 + xp_10_0 + xp_0_6 <= 29.4574468085106
 r_68: + xp_20_0 <= 28.8106343283582

Bounds
 0 <= xp_0_0 <= 27.9717766276435
 0 <= xp_0_1 <= 7.97917883049154
 0 <= xp_0_2 <= 13.1277869590603
 0 <= xp_0_3 <= 5.70579212476868
 0 <= xp_0_4 <= 1.51559113714857
 0 <= xp_0_5 <= 3.23179384667148
 0 <= xp_0_6 <= 2.4739982780972
 0 <= xp_0_7 <= 0.757795568574285
 0 <= xp_1_0 <= 20.2005917803881
 0 <= xp_1_1 <= 13.4992479045235
 0 <= xp_1_2 <= 0.720650958426933
 0 <= xp_1_3 <= 0.720650958426933
 0 <= xp_2_0 <= 23.6181334177791
 0 <= xp_2_1 <= 2.02822337235653
 0 <= xp_2_2 <= 5.85437056535809
 0 <= xp_2_3 <= 0.676074457452178
 0 <= xp_2_4 <= 2.4739982780972
 0 <= xp_3_0 <= 24.0787523131884
 0 <= xp_3_1 <= 3.8335741358324
 0 <= xp_3_2 <= 1.3595758577352
 0 <= xp_3_3 <= 2.9271902306756
 0 <= xp_4_0 <= 26.1515472385231
 0 <= xp_5_0 <= 21.3967204678826
 0 <= xp_5_1 <= 2.37741338532028
 0 <= xp_5_2 <= 2.37741338532028
 0 <= xp_6_0 <= 17.117376374306
 0 <= xp_6_1 <= 2.13967204678826
 0 <= xp_6_2 <= 2.13967204678826
 0 <= xp_6_3 <= 2.13967204678826
 0 <= xp_7_0 <= 18.4546714035487
 0 <= xp_7_1 <= 4.10103808967749
 0 <= xp_8_0 <= 18.4249537362322
 0 <= xp_8_1 <= 1.84249537362322
 0 <= xp_9_0 <= 18.7964245776885
 0 <= xp_10_0 <= 15.3788928362906
 0 <= xp_10_1 <= 3.41753174139791
 0 <= xp_11_0 <= 27.2139810590692
 0 <= xp_11_1 <= 12.6597064848443
 0 <= xp_11_2 <= 7.88261372970085
 0 <= xp_11_3 <= 11.7384686940258
 0 <= xp_12_0 <= 17.6522943860031
 0 <= xp_13_0 <= 12.4814202729315
 0 <= xp_13_1 <= 4.68053260234931
 0 <= xp_14_0 <= 11.8870669266014
 0 <= xp_14_1 <= 2.97176673165036
 0 <= xp_14_2 <= 1.48588336582518
 0 <= xp_15_0 <= 14.7102453216693
 0 <= xp_15_1 <= 1.47102453216693
 0 <= xp_16_0 <= 14.1158919753392
 0 <= xp_16_1 <= 1.41158919753392
 0 <= xp_17_0 <= 27.2362569395652
 0 <= xp_17_1 <= 1.6567574788968
 0 <= xp_17_2 <= 1.6567574788968
 0 <= xp_17_3 <= 5.78751323589079
 0 <= xp_17_4 <= 1.6567574788968
 0 <= xp_17_5 <= 1.6567574788968
 0 <= xp_17_6 <= 3.31351495779359
 0 <= xp_17_7 <= 2.4739982780972
 0 <= xp_18_0 <= 22.2362470435721
 0 <= xp_18_1 <= 2.95690294999555
 0 <= xp_18_2 <= 5.43090122809275
 0 <= xp_18_3 <= 11.3744445873866
 0 <= xp_18_4 <= 1.47845147499777
 0 <= xp_19_0 <= 28.6478560330922
 0 <= xp_19_1 <= 4.30162492206906
 0 <= xp_19_2 <= 2.86774994804604
 0 <= xp_19_3 <= 1.43387497402302
 0 <= xp_19_4 <= 1.43387497402302
 0 <= xp_19_5 <= 2.86774994804604
 0 <= xp_19_6 <= 1.43387497402302
 0 <= xp_20_0 <= 27.4591443924355
 0 <= xp_20_1 <= 4.07874241719528
 0 <= xp_20_2 <= 5.19315988956072
 0 <= xp_20_3 <= 5.43832322292704
 0 <= xp_21_0 <= 27.132250051954
 0 <= xp_21_1 <= 2.39226727098198
 0 <= xp_21_2 <= 3.58840090647297
 0 <= xp_21_3 <= 6.06239918457017
 0 <= xp_21_4 <= 1.19613363549099
 0 <= xp_22_0 <= 24.3610751006917
 0 <= xp_22_1 <= 2.4739982780972
 0 <= xp_22_2 <= 6.66417947373109
 0 <= xp_22_3 <= 1.04754529890847
 0 <= xp_22_4 <= 2.09509059781694
 0 <= xp_22_5 <= 1.04754529890847
 0 <= xp_22_6 <= 1.04754529890847
 0 <= xp_23_0 <= 21.129261462034
 0 <= xp_23_1 <= 3.52154357700567
 0 <= xp_23_2 <= 3.52154357700567
 0 <= xp_23_3 <= 1.04754529890847
 0 <= xp_23_4 <= 7.04308715401134
 0 <= xp_23_5 <= 2.4739982780972

End
